1
150
65
30 1
32 3
33 5
34 2
35 2
36 2
37 2
38 6
39 1
40 4
41 7
42 2
43 3
44 5
45 1
46 4
47 2
48 3
49 2
50 5
51 1
52 3
53 2
54 1
55 3
56 5
57 1
59 2
60 2
61 5
62 6
63 5
64 1
65 5
66 6
67 2
68 2
70 3
71 3
72 3
73 4
74 1
75 3
76 1
77 7
78 5
79 7
80 2
81 4
82 2
83 2
84 1
85 3
86 2
88 2
89 2
90 1
91 3
92 3
94 3
95 5
96 3
98 5
99 4
100 2
